4
22
51
40	29
1	3	6	12	6	11	8	9	
2	3	13	2	6	4	25	2	
3	2	11	6	6	11	
4	3	14	3	8	5	4	7	
5	1	5	10	
6	4	6	13	6	6	17	2	10	7	
7	1	8	9	
8	1	27	2	
9	1	24	3	
10	3	5	8	11	6	5	6	
11	4	10	4	8	13	8	3	6	6	
12	4	9	3	27	4	9	5	21	2	
13	1	9	2	
14	1	14	6	
15	2	6	3	8	13	
16	4	21	4	12	7	4	6	8	4	
17	3	14	5	13	3	6	4	
18	3	29	2	12	5	6	7	
19	2	5	7	4	9	
20	1	5	13	
21	2	5	13	5	5	
22	2	17	4	21	3	
